70
1 0 8
2 0 4
2 1 11
3 0 7
3 1 18
3 2 10
4 0 19
4 1 2
4 2 18
4 3 2
5 0 13
5 1 6
5 2 9
5 3 1
5 4 2
6 0 11
6 1 6
6 2 4
6 3 2
6 4 5
6 5 17
7 0 14
7 1 11
7 2 18
7 3 7
7 4 6
7 5 19
7 6 19
8 0 5
8 1 7
8 2 3
8 3 19
8 4 9
8 5 9
8 6 18
8 7 1
9 0 5
9 1 14
9 2 18
9 3 12
9 4 16
9 5 5
9 6 16
9 7 11
9 8 18
10 0 17
10 1 6
10 2 7
10 3 15
10 4 20
10 5 10
10 6 2
10 7 1
10 8 12
10 9 3
11 0 20
11 1 19
11 2 10
11 3 12
11 4 1
11 5 14
11 6 14
11 7 3
11 8 15
11 9 6
11 10 14
12 0 8
12 1 10
12 2 11
12 3 18
12 4 2
12 5 15
12 6 16
12 7 17
12 8 13
12 9 17
12 10 12
12 11 8
13 0 10
13 1 7
13 2 11
13 3 12
13 4 6
13 5 12
13 6 20
13 7 15
13 8 1
13 9 3
13 10 4
13 11 10
13 12 12
14 0 15
14 1 1
14 2 4
14 3 13
14 4 1
14 5 16
14 6 13
14 7 16
14 8 19
14 9 5
14 10 8
14 11 11
14 12 10
14 13 1
15 0 8
15 1 6
15 2 13
15 3 11
15 4 15
15 5 20
15 6 20
15 7 19
15 8 13
15 9 5
15 10 3
15 11 17
15 12 2
15 13 17
15 14 7
16 0 15
16 1 16
16 2 15
16 3 2
16 4 7
16 5 18
16 6 12
16 7 20
16 8 8
16 9 8
16 10 17
16 11 7
16 12 7
16 13 16
16 14 17
16 15 1
17 0 10
17 1 16
17 2 8
17 3 5
17 4 3
17 5 15
17 6 14
17 7 8
17 8 7
17 9 2
17 10 1
17 11 18
17 12 17
17 13 12
17 14 12
17 15 18
17 16 12
18 0 17
18 1 9
18 2 4
18 3 10
18 4 1
18 5 9
18 6 16
18 7 4
18 8 19
18 9 4
18 10 17
18 11 11
18 12 3
18 13 3
18 14 20
18 15 20
18 16 12
18 17 18
19 0 3
19 1 1
19 2 20
19 3 1
19 4 15
19 5 5
19 6 5
19 7 5
19 8 8
19 9 4
19 10 9
19 11 18
19 12 17
19 13 1
19 14 12
19 15 6
19 16 9
19 17 4
19 18 14
20 0 1
20 1 15
20 2 15
20 3 9
20 4 6
20 5 19
20 6 19
20 7 13
20 8 20
20 9 17
20 10 20
20 11 5
20 12 2
20 13 6
20 14 2
20 15 13
20 16 18
20 17 13
20 18 20
20 19 11
21 0 5
21 1 16
21 2 4
21 3 13
21 4 15
21 5 6
21 6 12
21 7 13
21 8 4
21 9 2
21 10 15
21 11 17
21 12 14
21 13 20
21 14 19
21 15 16
21 16 6
21 17 20
21 18 1
21 19 19
21 20 4
22 0 9
22 1 11
22 2 19
22 3 10
22 4 15
22 5 6
22 6 11
22 7 7
22 8 15
22 9 16
22 10 12
22 11 1
22 12 7
22 13 14
22 14 5
22 15 9
22 16 19
22 17 13
22 18 18
22 19 3
22 20 11
22 21 19
23 0 1
23 1 16
23 2 13
23 3 1
23 4 15
23 5 2
23 6 15
23 7 11
23 8 10
23 9 18
23 10 7
23 11 7
23 12 12
23 13 13
23 14 18
23 15 12
23 16 16
23 17 14
23 18 20
23 19 13
23 20 16
23 21 3
23 22 16
24 0 11
24 1 18
24 2 8
24 3 5
24 4 14
24 5 14
24 6 6
24 7 14
24 8 3
24 9 15
24 10 2
24 11 9
24 12 9
24 13 14
24 14 19
24 15 11
24 16 7
24 17 18
24 18 8
24 19 3
24 20 8
24 21 10
24 22 2
24 23 17
25 0 17
25 1 20
25 2 10
25 3 18
25 4 1
25 5 15
25 6 14
25 7 15
25 8 1
25 9 6
25 10 2
25 11 2
25 12 2
25 13 12
25 14 13
25 15 13
25 16 20
25 17 14
25 18 6
25 19 2
25 20 12
25 21 15
25 22 14
25 23 18
25 24 12
26 0 13
26 1 20
26 2 1
26 3 1
26 4 12
26 5 8
26 6 1
26 7 15
26 8 18
26 9 4
26 10 5
26 11 3
26 12 10
26 13 3
26 14 2
26 15 3
26 16 5
26 17 4
26 18 1
26 19 19
26 20 7
26 21 3
26 22 14
26 23 8
26 24 6
26 25 3
27 0 10
27 1 1
27 2 7
27 3 9
27 4 15
27 5 3
27 6 1
27 7 18
27 8 4
27 9 18
27 10 20
27 11 17
27 12 9
27 13 14
27 14 11
27 15 5
27 16 8
27 17 13
27 18 4
27 19 5
27 20 11
27 21 2
27 22 12
27 23 1
27 24 19
27 25 20
27 26 14
28 0 9
28 1 1
28 2 9
28 3 4
28 4 4
28 5 6
28 6 5
28 7 12
28 8 10
28 9 1
28 10 20
28 11 20
28 12 6
28 13 19
28 14 13
28 15 6
28 16 9
28 17 1
28 18 13
28 19 17
28 20 18
28 21 9
28 22 8
28 23 5
28 24 19
28 25 17
28 26 14
28 27 4
29 0 20
29 1 19
29 2 13
29 3 10
29 4 20
29 5 2
29 6 8
29 7 9
29 8 19
29 9 9
29 10 7
29 11 13
29 12 9
29 13 19
29 14 17
29 15 6
29 16 20
29 17 12
29 18 2
29 19 20
29 20 18
29 21 6
29 22 5
29 23 19
29 24 2
29 25 1
29 26 14
29 27 18
29 28 6
30 0 5
30 1 17
30 2 10
30 3 1
30 4 5
30 5 17
30 6 5
30 7 13
30 8 18
30 9 6
30 10 2
30 11 8
30 12 5
30 13 8
30 14 3
30 15 17
30 16 8
30 17 3
30 18 18
30 19 14
30 20 8
30 21 20
30 22 19
30 23 9
30 24 8
30 25 10
30 26 12
30 27 13
30 28 9
30 29 19
31 0 12
31 1 8
31 2 19
31 3 14
31 4 20
31 5 15
31 6 10
31 7 16
31 8 10
31 9 18
31 10 11
31 11 5
31 12 9
31 13 7
31 14 1
31 15 19
31 16 12
31 17 5
31 18 10
31 19 18
31 20 13
31 21 9
31 22 5
31 23 17
31 24 16
31 25 14
31 26 17
31 27 14
31 28 11
31 29 13
31 30 3
32 0 13
32 1 5
32 2 5
32 3 10
32 4 9
32 5 9
32 6 7
32 7 19
32 8 3
32 9 5
32 10 12
32 11 9
32 12 4
32 13 13
32 14 18
32 15 11
32 16 2
32 17 16
32 18 3
32 19 16
32 20 14
32 21 5
32 22 19
32 23 1
32 24 1
32 25 5
32 26 14
32 27 15
32 28 9
32 29 3
32 30 17
32 31 3
33 0 6
33 1 18
33 2 13
33 3 2
33 4 5
33 5 12
33 6 7
33 7 3
33 8 14
33 9 7
33 10 18
33 11 20
33 12 11
33 13 18
33 14 15
33 15 5
33 16 10
33 17 7
33 18 13
33 19 18
33 20 11
33 21 1
33 22 4
33 23 20
33 24 11
33 25 11
33 26 14
33 27 6
33 28 10
33 29 8
33 30 6
33 31 10
33 32 4
34 0 19
34 1 5
34 2 5
34 3 3
34 4 4
34 5 15
34 6 1
34 7 8
34 8 17
34 9 3
34 10 14
34 11 12
34 12 20
34 13 18
34 14 15
34 15 20
34 16 16
34 17 14
34 18 12
34 19 16
34 20 5
34 21 11
34 22 1
34 23 20
34 24 20
34 25 2
34 26 20
34 27 13
34 28 14
34 29 6
34 30 11
34 31 13
34 32 12
34 33 3
35 0 18
35 1 1
35 2 14
35 3 16
35 4 15
35 5 3
35 6 10
35 7 15
35 8 17
35 9 19
35 10 14
35 11 8
35 12 6
35 13 16
35 14 6
35 15 16
35 16 13
35 17 20
35 18 8
35 19 11
35 20 8
35 21 9
35 22 3
35 23 8
35 24 8
35 25 15
35 26 20
35 27 7
35 28 8
35 29 9
35 30 4
35 31 3
35 32 19
35 33 9
35 34 12
36 0 15
36 1 14
36 2 18
36 3 3
36 4 6
36 5 15
36 6 16
36 7 3
36 8 14
36 9 1
36 10 4
36 11 18
36 12 18
36 13 15
36 14 18
36 15 14
36 16 17
36 17 16
36 18 7
36 19 8
36 20 2
36 21 3
36 22 8
36 23 9
36 24 2
36 25 9
36 26 4
36 27 17
36 28 10
36 29 13
36 30 10
36 31 15
36 32 2
36 33 20
36 34 8
36 35 1
37 0 4
37 1 1
37 2 10
37 3 5
37 4 2
37 5 12
37 6 13
37 7 19
37 8 9
37 9 7
37 10 6
37 11 12
37 12 1
37 13 20
37 14 9
37 15 5
37 16 12
37 17 13
37 18 1
37 19 12
37 20 3
37 21 13
37 22 16
37 23 11
37 24 13
37 25 2
37 26 17
37 27 18
37 28 4
37 29 3
37 30 2
37 31 7
37 32 14
37 33 10
37 34 15
37 35 1
37 36 19
38 0 7
38 1 11
38 2 11
38 3 2
38 4 15
38 5 19
38 6 18
38 7 17
38 8 3
38 9 14
38 10 18
38 11 18
38 12 8
38 13 17
38 14 16
38 15 20
38 16 18
38 17 17
38 18 17
38 19 10
38 20 11
38 21 12
38 22 19
38 23 7
38 24 1
38 25 3
38 26 11
38 27 16
38 28 18
38 29 8
38 30 3
38 31 8
38 32 17
38 33 2
38 34 19
38 35 15
38 36 14
38 37 9
39 0 10
39 1 12
39 2 5
39 3 3
39 4 8
39 5 20
39 6 7
39 7 11
39 8 17
39 9 18
39 10 12
39 11 20
39 12 1
39 13 1
39 14 15
39 15 2
39 16 9
39 17 13
39 18 17
39 19 6
39 20 13
39 21 3
39 22 18
39 23 6
39 24 5
39 25 7
39 26 8
39 27 7
39 28 18
39 29 11
39 30 14
39 31 4
39 32 11
39 33 11
39 34 8
39 35 18
39 36 6
39 37 4
39 38 6
40 0 6
40 1 4
40 2 19
40 3 16
40 4 8
40 5 13
40 6 7
40 7 12
40 8 1
40 9 1
40 10 15
40 11 17
40 12 13
40 13 20
40 14 19
40 15 3
40 16 5
40 17 8
40 18 8
40 19 2
40 20 2
40 21 3
40 22 10
40 23 9
40 24 6
40 25 19
40 26 9
40 27 8
40 28 18
40 29 16
40 30 11
40 31 7
40 32 17
40 33 5
40 34 15
40 35 20
40 36 2
40 37 20
40 38 9
40 39 4
41 0 2
41 1 17
41 2 2
41 3 6
41 4 15
41 5 6
41 6 17
41 7 16
41 8 19
41 9 9
41 10 15
41 11 14
41 12 12
41 13 15
41 14 12
41 15 4
41 16 7
41 17 16
41 18 13
41 19 2
41 20 19
41 21 11
41 22 8
41 23 7
41 24 1
41 25 2
41 26 10
41 27 2
41 28 9
41 29 6
41 30 6
41 31 12
41 32 3
41 33 15
41 34 9
41 35 15
41 36 9
41 37 3
41 38 19
41 39 19
41 40 16
42 0 7
42 1 1
42 2 11
42 3 15
42 4 11
42 5 16
42 6 6
42 7 12
42 8 15
42 9 20
42 10 14
42 11 13
42 12 11
42 13 7
42 14 5
42 15 3
42 16 14
42 17 15
42 18 4
42 19 11
42 20 6
42 21 14
42 22 20
42 23 17
42 24 19
42 25 3
42 26 5
42 27 15
42 28 11
42 29 9
42 30 20
42 31 20
42 32 18
42 33 6
42 34 8
42 35 16
42 36 10
42 37 12
42 38 9
42 39 10
42 40 7
42 41 13
43 0 5
43 1 4
43 2 20
43 3 7
43 4 9
43 5 7
43 6 5
43 7 10
43 8 15
43 9 10
43 10 12
43 11 20
43 12 4
43 13 17
43 14 6
43 15 15
43 16 19
43 17 14
43 18 2
43 19 19
43 20 1
43 21 5
43 22 15
43 23 17
43 24 13
43 25 5
43 26 4
43 27 7
43 28 4
43 29 20
43 30 13
43 31 1
43 32 2
43 33 5
43 34 9
43 35 10
43 36 6
43 37 2
43 38 15
43 39 18
43 40 1
43 41 1
43 42 2
44 0 7
44 1 1
44 2 10
44 3 16
44 4 20
44 5 9
44 6 9
44 7 14
44 8 18
44 9 6
44 10 13
44 11 20
44 12 5
44 13 12
44 14 20
44 15 5
44 16 16
44 17 6
44 18 2
44 19 7
44 20 17
44 21 5
44 22 1
44 23 6
44 24 15
44 25 11
44 26 11
44 27 7
44 28 6
44 29 14
44 30 15
44 31 8
44 32 6
44 33 17
44 34 17
44 35 16
44 36 17
44 37 4
44 38 19
44 39 12
44 40 19
44 41 10
44 42 16
44 43 11
45 0 1
45 1 3
45 2 18
45 3 11
45 4 6
45 5 1
45 6 1
45 7 9
45 8 15
45 9 13
45 10 2
45 11 3
45 12 5
45 13 12
45 14 18
45 15 13
45 16 2
45 17 17
45 18 13
45 19 2
45 20 15
45 21 13
45 22 8
45 23 13
45 24 6
45 25 17
45 26 20
45 27 3
45 28 10
45 29 6
45 30 13
45 31 14
45 32 19
45 33 19
45 34 19
45 35 17
45 36 10
45 37 20
45 38 1
45 39 9
45 40 8
45 41 16
45 42 4
45 43 6
45 44 15
46 0 18
46 1 20
46 2 4
46 3 13
46 4 18
46 5 8
46 6 8
46 7 3
46 8 16
46 9 6
46 10 20
46 11 4
46 12 16
46 13 3
46 14 18
46 15 17
46 16 16
46 17 4
46 18 5
46 19 10
46 20 1
46 21 20
46 22 20
46 23 7
46 24 18
46 25 5
46 26 17
46 27 9
46 28 1
46 29 6
46 30 1
46 31 19
46 32 14
46 33 7
46 34 1
46 35 4
46 36 9
46 37 17
46 38 7
46 39 20
46 40 5
46 41 19
46 42 1
46 43 6
46 44 10
46 45 10
47 0 5
47 1 19
47 2 13
47 3 14
47 4 1
47 5 2
47 6 20
47 7 17
47 8 13
47 9 19
47 10 10
47 11 12
47 12 13
47 13 5
47 14 20
47 15 10
47 16 3
47 17 3
47 18 18
47 19 20
47 20 17
47 21 15
47 22 6
47 23 6
47 24 5
47 25 19
47 26 2
47 27 2
47 28 7
47 29 3
47 30 17
47 31 16
47 32 14
47 33 7
47 34 18
47 35 6
47 36 10
47 37 17
47 38 11
47 39 1
47 40 4
47 41 11
47 42 15
47 43 17
47 44 12
47 45 18
47 46 20
48 0 16
48 1 6
48 2 4
48 3 20
48 4 12
48 5 8
48 6 20
48 7 4
48 8 6
48 9 5
48 10 15
48 11 16
48 12 15
48 13 15
48 14 17
48 15 12
48 16 1
48 17 9
48 18 5
48 19 20
48 20 4
48 21 16
48 22 9
48 23 19
48 24 13
48 25 15
48 26 8
48 27 5
48 28 9
48 29 12
48 30 1
48 31 9
48 32 1
48 33 8
48 34 8
48 35 2
48 36 20
48 37 4
48 38 5
48 39 18
48 40 7
48 41 9
48 42 3
48 43 15
48 44 18
48 45 2
48 46 3
48 47 18
49 0 16
49 1 8
49 2 3
49 3 6
49 4 6
49 5 9
49 6 5
49 7 4
49 8 10
49 9 19
49 10 13
49 11 15
49 12 4
49 13 6
49 14 20
49 15 3
49 16 2
49 17 19
49 18 10
49 19 12
49 20 8
49 21 12
49 22 4
49 23 19
49 24 2
49 25 13
49 26 14
49 27 10
49 28 11
49 29 12
49 30 6
49 31 10
49 32 14
49 33 3
49 34 18
49 35 15
49 36 6
49 37 12
49 38 20
49 39 16
49 40 15
49 41 18
49 42 3
49 43 7
49 44 12
49 45 6
49 46 8
49 47 19
49 48 4
50 0 14
50 1 10
50 2 7
50 3 6
50 4 9
50 5 2
50 6 13
50 7 1
50 8 10
50 9 13
50 10 7
50 11 16
50 12 3
50 13 15
50 14 5
50 15 12
50 16 17
50 17 13
50 18 17
50 19 11
50 20 11
50 21 14
50 22 16
50 23 20
50 24 5
50 25 13
50 26 2
50 27 7
50 28 13
50 29 3
50 30 18
50 31 10
50 32 15
50 33 12
50 34 4
50 35 3
50 36 6
50 37 9
50 38 20
50 39 13
50 40 19
50 41 20
50 42 15
50 43 6
50 44 17
50 45 10
50 46 12
50 47 8
50 48 18
50 49 13
51 0 8
51 1 19
51 2 19
51 3 16
51 4 7
51 5 3
51 6 12
51 7 8
51 8 7
51 9 11
51 10 5
51 11 11
51 12 16
51 13 8
51 14 2
51 15 3
51 16 10
51 17 8
51 18 17
51 19 17
51 20 10
51 21 18
51 22 14
51 23 7
51 24 11
51 25 13
51 26 4
51 27 10
51 28 16
51 29 19
51 30 7
51 31 4
51 32 16
51 33 16
51 34 11
51 35 16
51 36 5
51 37 4
51 38 2
51 39 5
51 40 3
51 41 7
51 42 5
51 43 19
51 44 12
51 45 19
51 46 4
51 47 7
51 48 6
51 49 11
51 50 11
52 0 4
52 1 5
52 2 14
52 3 14
52 4 14
52 5 9
52 6 19
52 7 17
52 8 18
52 9 10
52 10 2
52 11 5
52 12 12
52 13 7
52 14 17
52 15 4
52 16 6
52 17 2
52 18 9
52 19 16
52 20 8
52 21 10
52 22 3
52 23 9
52 24 14
52 25 14
52 26 8
52 27 20
52 28 11
52 29 16
52 30 15
52 31 14
52 32 7
52 33 11
52 34 4
52 35 7
52 36 11
52 37 12
52 38 18
52 39 13
52 40 19
52 41 1
52 42 5
52 43 18
52 44 20
52 45 18
52 46 1
52 47 12
52 48 16
52 49 18
52 50 19
52 51 18
53 0 10
53 1 2
53 2 3
53 3 14
53 4 4
53 5 9
53 6 5
53 7 13
53 8 14
53 9 19
53 10 19
53 11 3
53 12 1
53 13 2
53 14 6
53 15 2
53 16 12
53 17 14
53 18 14
53 19 6
53 20 12
53 21 19
53 22 13
53 23 14
53 24 6
53 25 19
53 26 11
53 27 10
53 28 17
53 29 7
53 30 16
53 31 6
53 32 7
53 33 10
53 34 13
53 35 7
53 36 15
53 37 11
53 38 2
53 39 18
53 40 13
53 41 12
53 42 15
53 43 10
53 44 19
53 45 13
53 46 1
53 47 13
53 48 16
53 49 14
53 50 16
53 51 11
53 52 16
54 0 3
54 1 3
54 2 19
54 3 3
54 4 7
54 5 11
54 6 4
54 7 14
54 8 5
54 9 20
54 10 20
54 11 19
54 12 10
54 13 11
54 14 11
54 15 5
54 16 10
54 17 14
54 18 6
54 19 14
54 20 1
54 21 5
54 22 10
54 23 7
54 24 6
54 25 17
54 26 12
54 27 3
54 28 20
54 29 18
54 30 19
54 31 3
54 32 15
54 33 20
54 34 17
54 35 13
54 36 10
54 37 5
54 38 18
54 39 5
54 40 20
54 41 1
54 42 10
54 43 9
54 44 13
54 45 13
54 46 17
54 47 8
54 48 18
54 49 13
54 50 16
54 51 18
54 52 9
54 53 19
55 0 13
55 1 7
55 2 17
55 3 7
55 4 14
55 5 15
55 6 17
55 7 20
55 8 16
55 9 16
55 10 19
55 11 19
55 12 10
55 13 11
55 14 16
55 15 16
55 16 3
55 17 1
55 18 1
55 19 7
55 20 2
55 21 16
55 22 14
55 23 5
55 24 8
55 25 10
55 26 16
55 27 9
55 28 20
55 29 11
55 30 2
55 31 15
55 32 10
55 33 9
55 34 6
55 35 3
55 36 4
55 37 11
55 38 1
55 39 20
55 40 18
55 41 12
55 42 17
55 43 19
55 44 9
55 45 17
55 46 3
55 47 20
55 48 6
55 49 5
55 50 20
55 51 11
55 52 8
55 53 18
55 54 17
56 0 5
56 1 9
56 2 4
56 3 8
56 4 7
56 5 16
56 6 8
56 7 1
56 8 16
56 9 18
56 10 14
56 11 4
56 12 19
56 13 9
56 14 8
56 15 18
56 16 19
56 17 18
56 18 13
56 19 15
56 20 5
56 21 1
56 22 19
56 23 6
56 24 11
56 25 14
56 26 5
56 27 7
56 28 19
56 29 17
56 30 10
56 31 7
56 32 18
56 33 15
56 34 15
56 35 4
56 36 6
56 37 9
56 38 10
56 39 6
56 40 7
56 41 14
56 42 12
56 43 20
56 44 4
56 45 3
56 46 17
56 47 20
56 48 13
56 49 10
56 50 12
56 51 9
56 52 5
56 53 1
56 54 10
56 55 3
57 0 12
57 1 8
57 2 19
57 3 15
57 4 3
57 5 16
57 6 19
57 7 12
57 8 17
57 9 19
57 10 11
57 11 7
57 12 15
57 13 7
57 14 19
57 15 8
57 16 16
57 17 19
57 18 14
57 19 12
57 20 8
57 21 17
57 22 20
57 23 8
57 24 14
57 25 2
57 26 5
57 27 14
57 28 5
57 29 14
57 30 2
57 31 7
57 32 18
57 33 7
57 34 5
57 35 8
57 36 20
57 37 5
57 38 3
57 39 19
57 40 19
57 41 1
57 42 4
57 43 7
57 44 15
57 45 3
57 46 20
57 47 12
57 48 10
57 49 6
57 50 19
57 51 14
57 52 9
57 53 5
57 54 13
57 55 4
57 56 11
58 0 4
58 1 10
58 2 13
58 3 12
58 4 8
58 5 11
58 6 11
58 7 12
58 8 17
58 9 9
58 10 11
58 11 9
58 12 1
58 13 13
58 14 16
58 15 5
58 16 15
58 17 10
58 18 4
58 19 13
58 20 6
58 21 16
58 22 11
58 23 12
58 24 11
58 25 6
58 26 2
58 27 3
58 28 14
58 29 20
58 30 16
58 31 1
58 32 10
58 33 7
58 34 7
58 35 9
58 36 1
58 37 9
58 38 18
58 39 4
58 40 19
58 41 15
58 42 16
58 43 12
58 44 8
58 45 6
58 46 5
58 47 17
58 48 16
58 49 4
58 50 18
58 51 3
58 52 8
58 53 10
58 54 10
58 55 1
58 56 20
58 57 14
59 0 6
59 1 12
59 2 12
59 3 10
59 4 8
59 5 13
59 6 15
59 7 18
59 8 19
59 9 15
59 10 6
59 11 7
59 12 9
59 13 7
59 14 20
59 15 5
59 16 11
59 17 10
59 18 4
59 19 6
59 20 3
59 21 15
59 22 12
59 23 1
59 24 18
59 25 20
59 26 12
59 27 19
59 28 17
59 29 13
59 30 15
59 31 20
59 32 15
59 33 10
59 34 15
59 35 1
59 36 8
59 37 5
59 38 15
59 39 20
59 40 3
59 41 20
59 42 4
59 43 8
59 44 8
59 45 20
59 46 16
59 47 1
59 48 6
59 49 2
59 50 10
59 51 20
59 52 19
59 53 17
59 54 9
59 55 10
59 56 7
59 57 6
59 58 3
60 0 14
60 1 8
60 2 11
60 3 3
60 4 17
60 5 5
60 6 15
60 7 17
60 8 11
60 9 14
60 10 20
60 11 2
60 12 5
60 13 15
60 14 7
60 15 9
60 16 12
60 17 16
60 18 20
60 19 3
60 20 17
60 21 8
60 22 20
60 23 18
60 24 19
60 25 15
60 26 18
60 27 18
60 28 18
60 29 15
60 30 19
60 31 12
60 32 19
60 33 17
60 34 11
60 35 9
60 36 13
60 37 11
60 38 11
60 39 14
60 40 2
60 41 4
60 42 7
60 43 7
60 44 2
60 45 18
60 46 6
60 47 17
60 48 5
60 49 13
60 50 4
60 51 8
60 52 3
60 53 20
60 54 15
60 55 19
60 56 14
60 57 18
60 58 5
60 59 7
61 0 2
61 1 1
61 2 18
61 3 7
61 4 7
61 5 5
61 6 18
61 7 15
61 8 7
61 9 9
61 10 6
61 11 18
61 12 14
61 13 7
61 14 16
61 15 10
61 16 8
61 17 13
61 18 19
61 19 15
61 20 7
61 21 11
61 22 7
61 23 10
61 24 19
61 25 15
61 26 5
61 27 11
61 28 16
61 29 6
61 30 16
61 31 7
61 32 12
61 33 9
61 34 18
61 35 19
61 36 19
61 37 5
61 38 20
61 39 17
61 40 11
61 41 9
61 42 6
61 43 1
61 44 6
61 45 4
61 46 19
61 47 8
61 48 13
61 49 5
61 50 8
61 51 5
61 52 1
61 53 19
61 54 19
61 55 15
61 56 15
61 57 3
61 58 1
61 59 7
61 60 10
62 0 19
62 1 20
62 2 19
62 3 6
62 4 6
62 5 7
62 6 11
62 7 5
62 8 13
62 9 12
62 10 7
62 11 3
62 12 4
62 13 18
62 14 4
62 15 13
62 16 2
62 17 8
62 18 6
62 19 14
62 20 10
62 21 3
62 22 19
62 23 20
62 24 12
62 25 2
62 26 19
62 27 10
62 28 18
62 29 1
62 30 4
62 31 19
62 32 2
62 33 15
62 34 5
62 35 10
62 36 1
62 37 8
62 38 9
62 39 17
62 40 17
62 41 10
62 42 3
62 43 9
62 44 12
62 45 8
62 46 5
62 47 3
62 48 20
62 49 8
62 50 18
62 51 16
62 52 7
62 53 14
62 54 2
62 55 17
62 56 19
62 57 12
62 58 1
62 59 6
62 60 7
62 61 10
63 0 8
63 1 17
63 2 20
63 3 3
63 4 12
63 5 15
63 6 4
63 7 14
63 8 5
63 9 9
63 10 1
63 11 13
63 12 20
63 13 20
63 14 10
63 15 15
63 16 10
63 17 16
63 18 18
63 19 5
63 20 3
63 21 5
63 22 2
63 23 10
63 24 1
63 25 8
63 26 14
63 27 14
63 28 7
63 29 11
63 30 17
63 31 17
63 32 9
63 33 10
63 34 1
63 35 13
63 36 5
63 37 15
63 38 20
63 39 6
63 40 8
63 41 18
63 42 17
63 43 16
63 44 13
63 45 10
63 46 19
63 47 12
63 48 15
63 49 4
63 50 3
63 51 13
63 52 8
63 53 12
63 54 20
63 55 20
63 56 15
63 57 8
63 58 19
63 59 19
63 60 20
63 61 15
63 62 7
64 0 13
64 1 1
64 2 15
64 3 3
64 4 12
64 5 12
64 6 7
64 7 15
64 8 13
64 9 12
64 10 20
64 11 10
64 12 12
64 13 10
64 14 14
64 15 14
64 16 4
64 17 1
64 18 5
64 19 2
64 20 20
64 21 18
64 22 9
64 23 10
64 24 9
64 25 19
64 26 12
64 27 15
64 28 5
64 29 8
64 30 8
64 31 10
64 32 13
64 33 15
64 34 13
64 35 10
64 36 12
64 37 12
64 38 6
64 39 3
64 40 10
64 41 3
64 42 5
64 43 10
64 44 9
64 45 16
64 46 6
64 47 11
64 48 5
64 49 17
64 50 7
64 51 1
64 52 4
64 53 4
64 54 6
64 55 15
64 56 15
64 57 18
64 58 10
64 59 9
64 60 16
64 61 11
64 62 18
64 63 6
65 0 6
65 1 6
65 2 13
65 3 9
65 4 2
65 5 5
65 6 6
65 7 17
65 8 15
65 9 11
65 10 2
65 11 15
65 12 10
65 13 5
65 14 18
65 15 15
65 16 18
65 17 9
65 18 19
65 19 5
65 20 9
65 21 13
65 22 9
65 23 17
65 24 9
65 25 12
65 26 5
65 27 6
65 28 16
65 29 11
65 30 9
65 31 7
65 32 1
65 33 1
65 34 8
65 35 9
65 36 7
65 37 19
65 38 18
65 39 13
65 40 7
65 41 11
65 42 10
65 43 4
65 44 5
65 45 3
65 46 17
65 47 8
65 48 13
65 49 13
65 50 16
65 51 17
65 52 7
65 53 10
65 54 2
65 55 11
65 56 13
65 57 1
65 58 13
65 59 12
65 60 10
65 61 20
65 62 2
65 63 9
65 64 2
66 0 8
66 1 12
66 2 1
66 3 7
66 4 18
66 5 4
66 6 5
66 7 4
66 8 19
66 9 2
66 10 4
66 11 18
66 12 2
66 13 4
66 14 20
66 15 1
66 16 16
66 17 10
66 18 8
66 19 11
66 20 13
66 21 18
66 22 8
66 23 18
66 24 19
66 25 2
66 26 2
66 27 1
66 28 5
66 29 7
66 30 15
66 31 5
66 32 1
66 33 18
66 34 10
66 35 15
66 36 10
66 37 2
66 38 3
66 39 3
66 40 12
66 41 18
66 42 14
66 43 17
66 44 4
66 45 12
66 46 13
66 47 18
66 48 7
66 49 17
66 50 9
66 51 18
66 52 20
66 53 5
66 54 4
66 55 20
66 56 20
66 57 7
66 58 16
66 59 10
66 60 20
66 61 9
66 62 9
66 63 19
66 64 13
66 65 20
67 0 2
67 1 17
67 2 15
67 3 17
67 4 12
67 5 17
67 6 5
67 7 8
67 8 20
67 9 19
67 10 12
67 11 3
67 12 10
67 13 20
67 14 9
67 15 5
67 16 15
67 17 6
67 18 11
67 19 19
67 20 10
67 21 2
67 22 3
67 23 9
67 24 15
67 25 11
67 26 13
67 27 18
67 28 16
67 29 1
67 30 1
67 31 5
67 32 14
67 33 5
67 34 15
67 35 4
67 36 12
67 37 12
67 38 13
67 39 7
67 40 17
67 41 20
67 42 15
67 43 8
67 44 5
67 45 20
67 46 20
67 47 2
67 48 15
67 49 9
67 50 4
67 51 3
67 52 20
67 53 10
67 54 4
67 55 17
67 56 20
67 57 11
67 58 13
67 59 14
67 60 1
67 61 16
67 62 13
67 63 16
67 64 19
67 65 2
67 66 20
68 0 6
68 1 10
68 2 7
68 3 19
68 4 12
68 5 1
68 6 3
68 7 19
68 8 4
68 9 12
68 10 9
68 11 6
68 12 6
68 13 18
68 14 19
68 15 19
68 16 6
68 17 16
68 18 10
68 19 3
68 20 19
68 21 14
68 22 9
68 23 18
68 24 20
68 25 7
68 26 15
68 27 1
68 28 9
68 29 17
68 30 13
68 31 17
68 32 9
68 33 6
68 34 11
68 35 5
68 36 5
68 37 14
68 38 9
68 39 12
68 40 11
68 41 7
68 42 13
68 43 9
68 44 9
68 45 6
68 46 3
68 47 8
68 48 2
68 49 19
68 50 7
68 51 13
68 52 6
68 53 12
68 54 14
68 55 5
68 56 5
68 57 9
68 58 12
68 59 2
68 60 9
68 61 19
68 62 9
68 63 18
68 64 2
68 65 5
68 66 20
68 67 1
69 0 6
69 1 15
69 2 16
69 3 16
69 4 14
69 5 4
69 6 10
69 7 12
69 8 11
69 9 15
69 10 18
69 11 19
69 12 6
69 13 17
69 14 4
69 15 3
69 16 10
69 17 10
69 18 19
69 19 17
69 20 18
69 21 19
69 22 5
69 23 14
69 24 11
69 25 2
69 26 2
69 27 8
69 28 15
69 29 20
69 30 19
69 31 7
69 32 15
69 33 8
69 34 19
69 35 13
69 36 16
69 37 18
69 38 9
69 39 12
69 40 19
69 41 10
69 42 15
69 43 10
69 44 13
69 45 12
69 46 2
69 47 15
69 48 16
69 49 9
69 50 4
69 51 11
69 52 6
69 53 18
69 54 10
69 55 17
69 56 17
69 57 10
69 58 4
69 59 13
69 60 18
69 61 4
69 62 16
69 63 10
69 64 6
69 65 8
69 66 8
69 67 12
69 68 20
